#N B3LYP/aug-cc-pVDZ OPT 

2Naph

-1 1 
 7          1.807942    2.897884    0.009862
 6          1.334813    1.793937    0.003413
 6          0.731383    0.464009   -0.028469
 6          1.573534   -0.682045   -0.009836
 6          0.989204   -1.991507    0.012804
 6         -0.395929   -2.132495    0.010274
 6         -1.318982   -1.024902   -0.018678
 6         -0.714452    0.319570   -0.042630
 6         -1.592438    1.446255   -0.020462
 6         -2.967722    1.216295    0.039180
 6         -3.502025   -0.107422    0.030349
 6         -2.767360   -1.330085   -0.031808
 7          4.224603   -0.463664    0.016557
 6          3.026849   -0.542893    0.004493
 1          1.652421   -2.865003    0.036017
 1         -0.832169   -3.142255    0.040741
 1         -1.178795    2.461414   -0.041153
 1         -3.643779    2.087024    0.055889
 1         -4.606744   -0.153025    0.031798

