#N B3LYP/aug-cc-pVDZ OPT 

2Naph

-1 1 
 7         -4.748730   -1.564121   -0.000101
 6         -3.703073   -0.975085    0.000077
 6         -1.215614   -0.949232   -0.000075
 6         -2.435672   -0.254676    0.000060
 6         -2.429222    1.194113    0.000179
 6         -1.232924    1.883440    0.000183
 6          0.049754    1.205756    0.000029
 6          0.033244   -0.252550   -0.000086
 6          1.301918   -0.920342   -0.000191
 6          2.482400   -0.158673   -0.000076
 6          2.623720    1.321193   -0.000224
 6          1.307768    1.887713   -0.000156
 7          4.771531   -1.559382    0.000272
 6          3.743044   -0.942229    0.000122
 1         -1.215967   -2.048736   -0.000171
 1         -3.389735    1.725869    0.000262
 1         -1.236879    2.982636    0.000277
 1          1.318413   -2.020880   -0.000319
 1          1.212511    2.989078   -0.000294

