#N B3LYP/aug-cc-pVDZ OPT 

2Naph

-1 1 
 7          4.566424    0.778927    0.111069
 6          3.393334    0.535095    0.054227
 6          1.086279    1.328381   -0.110897
 6          1.946272    0.223450   -0.017138
 6          1.575150   -1.210461   -0.018251
 6          0.147040   -1.309968   -0.003791
 6         -0.828725   -0.224902    0.032314
 6         -0.335916    1.134121   -0.062293
 6         -1.273056    2.225606   -0.082901
 6         -2.639577    1.998043   -0.004214
 6         -3.133444    0.658751    0.098783
 6         -2.254580   -0.415791    0.121973
 7         -0.850445   -3.792682   -0.075553
 6         -0.416301   -2.674272   -0.046089
 1          1.472036    2.355301   -0.199699
 1         -0.883360    3.250565   -0.156032
 1         -3.346172    2.837743   -0.018791
 1         -4.216764    0.487578    0.156601
 1         -2.636458   -1.443223    0.198980

