#N B3LYP/aug-cc-pVDZ OPT 

2Naph

-1 1 
 7          1.672579    3.425684   -0.000092
 6          1.651943    2.224703   -0.000055
 6          1.650589    0.772580    0.000091
 6          2.864208    0.049809    0.000132
 6          2.879389   -1.367446    0.000079
 6          1.751651   -2.260110   -0.000075
 6          0.505470   -1.441388   -0.000094
 6          0.410912    0.017444    0.000045
 6         -0.868598    0.664275    0.000048
 6         -2.055103   -0.084674    0.000022
 6         -1.992557   -1.524330    0.000011
 6         -0.754547   -2.151264   -0.000034
 7         -4.426918    1.124959   -0.000014
 6         -3.355123    0.586102    0.000008
 1          3.804832    0.624335   -0.000059
 1          3.893807   -1.806481   -0.000350
 1         -0.917314    1.762740    0.000088
 1         -2.927069   -2.099171    0.000029
 1         -0.703287   -3.250132   -0.000050

