#N B3LYP/aug-cc-pVDZ OPT 

2Naph

-1 1 
 7          1.822773    2.894976    0.046526
 6          1.326780    1.801147    0.021101
 6          0.720340    0.475552    0.000298
 6          1.563097   -0.680058   -0.007020
 6          0.969627   -1.984643   -0.022770
 6         -0.412194   -2.130521   -0.058880
 6         -1.305779   -1.000926   -0.041164
 6         -0.719944    0.340218   -0.013172
 6         -1.621347    1.455857   -0.020848
 6         -2.998404    1.230043   -0.103690
 6         -3.653699   -0.049337    0.116201
 6         -2.734224   -1.122175    0.084941
 7          4.211870   -0.484121    0.012107
 6          3.012857   -0.553157    0.003575
 1          1.628665   -2.862393   -0.016939
 1         -0.849251   -3.138289   -0.088275
 1         -1.192503    2.468132   -0.009257
 1         -3.625900    2.121892   -0.290437
 1         -3.086168   -2.157329    0.243047

