#N B3LYP/aug-cc-pVDZ OPT 

2Naph

-1 1 
 7          1.603987    3.448990   -0.122169
 6          1.582664    2.249995   -0.066036
 6          1.594979    0.790627   -0.005689
 6          2.830716    0.127950    0.115868
 6          2.879746   -1.289311    0.183117
 6          1.700400   -2.035253    0.144441
 6          0.413129   -1.418052   -0.001245
 6          0.347496    0.040805   -0.063449
 6         -0.937491    0.649974   -0.161023
 6         -2.090253   -0.169028   -0.076623
 6         -2.107910   -1.617797   -0.227459
 6         -0.810732   -2.161133   -0.207197
 7         -4.436127    1.062882    0.312781
 6         -3.380261    0.518025    0.144600
 1          3.757661    0.714371    0.158533
 1          3.852856   -1.790330    0.264290
 1          1.746571   -3.131969    0.204371
 1         -1.003494    1.743879   -0.245054
 1         -0.663525   -3.239859   -0.392251

