#N B3LYP/aug-cc-pVDZ OPT 

2Naph

-1 1 
 7         -5.130336    0.430757    0.409018
 6         -3.978519    0.163138    0.204472
 6         -1.670084    0.916104   -0.226596
 6         -2.565298   -0.172761   -0.066159
 6         -2.199255   -1.574911   -0.174551
 6         -0.807813   -1.764148   -0.211315
 6          0.181680   -0.717066   -0.054725
 6         -0.268843    0.670177   -0.151703
 6          0.718846    1.724731   -0.147653
 6          2.071046    1.452151   -0.046322
 6          2.526617    0.084945    0.060104
 6          1.585559   -0.962911    0.075054
 7          5.130810   -0.423279    0.222363
 6          3.954567   -0.195971    0.143949
 1         -2.025417    1.949855   -0.343305
 1         -0.391612   -2.769469   -0.399043
 1          0.374570    2.765541   -0.221034
 1          2.811733    2.261798   -0.046225
 1          1.936402   -2.000950    0.162612

