#N B3LYP/aug-cc-pVDZ OPT 

2Naph

-1 1 
 7          4.904893   -0.297382   -0.032574
 6          3.704707   -0.268298   -0.024104
 6          1.555292    0.996744   -0.045144
 6          2.248030   -0.234605   -0.025427
 6          1.499323   -1.462965    0.004750
 6          0.112489   -1.434165    0.024323
 6         -0.618425   -0.193916    0.012724
 6          0.132785    1.058694   -0.002499
 6         -0.622015    2.293601    0.195933
 6         -1.999441    2.370269    0.031073
 6         -2.669011    1.153774   -0.251082
 6         -2.065408   -0.124820   -0.016594
 7         -3.549122   -2.321886    0.084055
 6         -2.856383   -1.339772    0.052100
 1          2.127313    1.934906   -0.065715
 1          2.039397   -2.418440    0.013133
 1         -0.454977   -2.374432    0.041106
 1         -0.036262    3.151255    0.569153
 1         -3.697522    1.154326   -0.654363

