#N B3LYP/aug-cc-pVDZ OPT 

2Naph

-1 1 
 7         -3.487386   -2.391021    0.000093
 6         -2.823799   -1.389907    0.000183
 6         -2.038208   -0.168054    0.000022
 6         -2.674790    1.098886   -0.000006
 6         -1.929657    2.298644   -0.000129
 6         -0.494439    2.441696   -0.000059
 6          0.111990    1.077529    0.000041
 6         -0.594197   -0.202738   -0.000078
 6          0.145420   -1.441860   -0.000182
 6          1.528309   -1.455119   -0.000176
 6          2.258853   -0.210833    0.000029
 6          1.547977    1.003569    0.000098
 7          4.918109   -0.244304    0.000103
 6          3.718222   -0.226719    0.000081
 1         -3.776934    1.118046    0.000275
 1         -2.545355    3.216169   -0.000029
 1         -0.412154   -2.389050   -0.000340
 1          2.082951   -2.402645   -0.000336
 1          2.102344    1.954194    0.000105

