#N B3LYP/aug-cc-pVDZ OPT 

2Naph

-1 1 
 7          3.413502   -2.442787    0.000596
 6          2.804349   -1.408802    0.000290
 6          2.090684   -0.114829   -0.000070
 6          2.911197    1.066365   -0.000005
 6          2.021521    2.254107   -0.000397
 6          0.637031    2.276275    0.000173
 6         -0.114627    1.040628    0.000148
 6          0.638566   -0.201006   -0.000273
 6         -0.108330   -1.436685   -0.000616
 6         -1.493052   -1.456761   -0.000462
 6         -2.237023   -0.220391    0.000006
 6         -1.540205    1.001846    0.000314
 7         -4.895324   -0.266348    0.000255
 6         -3.695407   -0.244175    0.000144
 1          2.508783    3.247960   -0.000860
 1          0.066708    3.218163    0.000425
 1          0.453425   -2.381168   -0.000979
 1         -2.042508   -2.407229   -0.000699
 1         -2.101880    1.946791    0.000645

