#N B3LYP/aug-cc-pVDZ OPT 

2Naph

-1 1 
 7          3.421667   -2.461322   -0.000040
 6          2.718779   -1.487790   -0.000022
 6          1.993420   -0.205590   -0.000013
 6          2.712761    0.998040   -0.000013
 6          2.006614    2.238141    0.000010
 6          0.617861    2.252941    0.000020
 6         -0.144645    1.028757    0.000008
 6          0.540071   -0.262272    0.000010
 6         -0.076414   -1.605439    0.000047
 6         -1.493095   -1.460839    0.000070
 6         -2.236687   -0.217876    0.000009
 6         -1.573807    1.022426   -0.000014
 7         -4.902488   -0.304407   -0.000049
 6         -3.703846   -0.238107   -0.000028
 1          3.810421    0.990476   -0.000026
 1          2.572270    3.179186    0.000022
 1          0.080249    3.212437    0.000042
 1         -2.130752   -2.362581    0.000131
 1         -2.132502    1.966223   -0.000051

