#N B3LYP/aug-cc-pVDZ OPT 

2Naph

-1 1 
 7         -0.687318    3.825366   -0.000674
 6         -0.334578    2.678110    0.000423
 6          0.094932    1.279203    0.000241
 6          1.464927    0.998863    0.000173
 6          1.920233   -0.362333    0.000031
 6          0.970179   -1.409628   -0.000070
 6         -0.445355   -1.198904   -0.000032
 6         -0.898322    0.204475    0.000147
 6         -2.295466    0.450809    0.000211
 6         -3.167699   -0.648594    0.000062
 6         -2.683364   -1.983109   -0.000151
 6         -1.311162   -2.410829   -0.000181
 7          4.528241   -0.876043   -0.000072
 6          3.350460   -0.645229   -0.000025
 1          2.197407    1.817006    0.000234
 1          1.325230   -2.451859   -0.000203
 1         -2.672593    1.480334    0.000363
 1         -4.252562   -0.450753    0.000120
 1         -3.472651   -2.756989   -0.000270

