#N B3LYP/aug-cc-pVDZ OPT 

2Naph

-1 1 
 7          4.806378   -1.479616    0.000577
 6          3.733005   -0.941840    0.000437
 6          1.257118   -0.961431   -0.000124
 6          2.453128   -0.224688   -0.000073
 6          2.429907    1.224001   -0.000685
 6          1.280866    2.066670   -0.000468
 6          0.063635    1.221414    0.000024
 6          0.019132   -0.244456   -0.000453
 6         -1.241104   -0.936147   -0.000489
 6         -2.451477   -0.230941    0.000036
 6         -2.436898    1.213628    0.000556
 6         -1.224550    1.885450    0.000567
 7         -4.774304   -1.530939   -0.000064
 6         -3.726118   -0.947324    0.000003
 1          1.262081   -2.058250    0.000123
 1          3.435332    1.682338   -0.000873
 1         -1.254237   -2.035883   -0.000651
 1         -3.391804    1.754164    0.001019
 1         -1.215748    2.985506    0.000807

