#N B3LYP/aug-cc-pVDZ OPT 

2Naph

-1 1 
 7          4.227073    0.799598    0.000127
 6          3.153796    0.260330    0.000311
 6          1.863450   -0.405647    0.000042
 6          1.776131   -1.816878    0.000285
 6          0.525368   -2.483839   -0.000315
 6         -0.780751   -1.884324   -0.000580
 6         -0.615120   -0.407722   -0.000163
 6          0.627177    0.352364   -0.000054
 6          0.595175    1.789664   -0.000249
 6         -0.610636    2.483884   -0.000177
 6         -1.847848    1.778896    0.000080
 6         -1.837055    0.375205    0.000036
 7         -4.211003   -0.846517    0.000334
 6         -3.110203   -0.366558    0.000241
 1          2.718245   -2.388950    0.000922
 1          0.598590   -3.586123   -0.000364
 1          1.547001    2.340065   -0.000517
 1         -0.615811    3.581954   -0.000408
 1         -2.797418    2.329244    0.000401

