#N B3LYP/aug-cc-pVDZ OPT 

2Naph

-1 1 
 7         -0.763061    3.809752   -0.053701
 6         -0.408040    2.663002   -0.030887
 6          0.046970    1.276163   -0.010873
 6          1.427997    1.021768    0.003794
 6          1.915829   -0.322368    0.029114
 6          0.991816   -1.399977    0.069926
 6         -0.412968   -1.191072    0.022611
 6         -0.925382    0.185253   -0.010413
 6         -2.333450    0.381335   -0.009392
 6         -3.178459   -0.736048    0.163371
 6         -2.763187   -2.087022   -0.067263
 6         -1.380950   -2.264374   -0.149626
 7          4.532726   -0.780996    0.015672
 6          3.350241   -0.572140    0.015965
 1          2.140104    1.857109   -0.006996
 1          1.375117   -2.429098    0.112983
 1         -2.719048    1.410248   -0.035545
 1         -4.220625   -0.527508    0.468643
 1         -0.945706   -3.239161   -0.430846

