#N B3LYP/aug-cc-pVDZ OPT 

2Naph

-1 1 
 7         -0.538412    3.839446   -0.000433
 6         -0.228990    2.679272    0.000255
 6          0.157366    1.276845    0.000004
 6          1.512065    0.911663   -0.000276
 6          1.897578   -0.470104   -0.000489
 6          1.034293   -1.628578   -0.000336
 6         -0.383652   -1.156258    0.000170
 6         -0.847803    0.221256    0.000170
 6         -2.254703    0.512251    0.000479
 6         -3.195274   -0.510782    0.000244
 6         -2.770708   -1.872422   -0.000127
 6         -1.410952   -2.169873   -0.000176
 7          4.535941   -0.923282    0.000302
 6          3.355025   -0.712625    0.000383
 1          2.275114    1.706131   -0.000182
 1         -2.578607    1.562443    0.000481
 1         -4.267945   -0.273935    0.000145
 1         -3.520657   -2.674137   -0.000499
 1         -1.076083   -3.217527   -0.000848

