#N B3LYP/aug-cc-pVDZ OPT 

2Naph

-1 1 
 7          1.658630    3.425419   -0.000232
 6          1.640424    2.225222   -0.000182
 6          1.632536    0.762655    0.000016
 6          2.858389    0.080439    0.000187
 6          2.885470   -1.341116    0.000364
 6          1.689038   -2.057954    0.000350
 6          0.386166   -1.439037    0.000160
 6          0.370162    0.028269    0.000022
 6         -0.891360    0.688915   -0.000087
 6         -2.059251   -0.099416   -0.000133
 6         -1.983377   -1.540769   -0.000093
 6         -0.798269   -2.333918    0.000107
 7         -4.462576    1.057908   -0.000304
 6         -3.367102    0.566871   -0.000219
 1          3.797175    0.650740    0.000176
 1          3.852616   -1.859554    0.000501
 1          1.714255   -3.158254    0.000467
 1         -0.945304    1.783949   -0.000132
 1         -2.968071   -2.041135   -0.000206

