#N B3LYP/aug-cc-pVDZ OPT 

2Naph

-1 1 
 7         -4.427172    1.036383    0.001426
 6         -3.343189    0.522221   -0.000212
 6         -0.856379    0.658104    0.000727
 6         -2.027982   -0.117377   -0.000108
 6         -1.941795   -1.556718   -0.000905
 6         -0.696263   -2.165367   -0.001009
 6          0.517022   -1.396720   -0.000378
 6          0.444607    0.052678    0.000443
 6          1.701354    0.800358    0.000331
 6          3.038110    0.282844    0.000708
 6          2.964595   -1.196712    0.001258
 6          1.828011   -1.994227   -0.000241
 7          1.491044    3.469075   -0.001376
 6          1.564922    2.271142   -0.000698
 1         -0.928780    1.755176    0.001422
 1         -2.864696   -2.149614   -0.001458
 1         -0.623392   -3.261946   -0.001594
 1          3.924120   -1.749629    0.002587
 1          1.887570   -3.093549   -0.000802

