#N B3LYP/aug-cc-pVDZ OPT 

2Naph

-1 1 
 7          4.211806   -0.484157   -0.012193
 6          3.012789   -0.553213   -0.003533
 6          0.720310    0.475568    0.000046
 6          1.563005   -0.680078    0.007204
 6          0.969573   -1.984669    0.022851
 6         -0.412267   -2.130519    0.058969
 6         -1.305829   -1.000924    0.041172
 6         -0.720046    0.340297    0.013286
 6         -1.621360    1.455905    0.020991
 6         -2.998489    1.230059    0.103930
 6         -3.653519   -0.049143   -0.116385
 6         -2.734271   -1.122109   -0.085406
 7          1.823267    2.894729   -0.046891
 6          1.326769    1.801131   -0.021234
 1          1.628622   -2.862408    0.016857
 1         -0.849363   -3.138269    0.088456
 1         -1.192537    2.468191    0.009597
 1         -3.625936    2.121809    0.291296
 1         -3.086295   -2.157161   -0.243955

