#N B3LYP/aug-cc-pVDZ OPT 

2Naph

-1 1 
 7          4.083528   -0.899743    0.260947
 6          2.887448   -0.874961    0.144565
 6          1.443679   -0.895839   -0.030887
 6          0.755343   -2.097838   -0.336284
 6         -0.664834   -2.265121   -0.198588
 6         -1.366140   -1.046288   -0.085526
 6         -0.747396    0.288238   -0.140492
 6          0.692190    0.355956   -0.002001
 6          1.318593    1.642029    0.099634
 6          0.569554    2.814287    0.042743
 6         -0.844649    2.751921   -0.116065
 6         -1.481732    1.516342   -0.214150
 7         -3.992266   -1.139499    0.400842
 6         -2.810522   -1.086392    0.196486
 1          1.377347   -2.959240   -0.639098
 1          2.410737    1.685304    0.209283
 1          1.066973    3.790110    0.117054
 1         -1.429448    3.680391   -0.151453
 1         -2.573645    1.464128   -0.324924

